c This file is generated by v2cnfMtr
c Generated on Tue Mar  1 23:14:47 2016
p cnf 172 415
4 16 0
-4 -16 0
5 17 0
-5 -17 0
1 60 0
-1 -60 0
-1 -16 20 0
1 -20 0
16 -20 0
-60 -16 21 0
60 -21 0
16 -21 0
-2 -4 22 0
2 -22 0
4 -22 0
-3 -4 23 0
3 -23 0
4 -23 0
-20 -17 29 0
20 -29 0
17 -29 0
-21 -5 27 0
21 -27 0
5 -27 0
-22 -17 25 0
22 -25 0
17 -25 0
-23 -5 24 0
23 -24 0
5 -24 0
24 25 -26 0
-24 26 0
-25 26 0
26 27 -28 0
-26 28 0
-27 28 0
29 28 -61 0
-29 61 0
-28 61 0
6 30 0
-6 -30 0
7 31 0
-7 -31 0
1 60 0
-1 -60 0
-1 -30 34 0
1 -34 0
30 -34 0
-60 -30 35 0
60 -35 0
30 -35 0
-2 -6 36 0
2 -36 0
6 -36 0
-3 -6 37 0
3 -37 0
6 -37 0
-34 -31 43 0
34 -43 0
31 -43 0
-35 -7 41 0
35 -41 0
7 -41 0
-36 -31 39 0
36 -39 0
31 -39 0
-37 -7 38 0
37 -38 0
7 -38 0
38 39 -40 0
-38 40 0
-39 40 0
40 41 -42 0
-40 42 0
-41 42 0
43 42 -61 0
-43 61 0
-42 61 0
8 44 0
-8 -44 0
9 45 0
-9 -45 0
1 60 0
-1 -60 0
-1 -44 48 0
1 -48 0
44 -48 0
-60 -44 49 0
60 -49 0
44 -49 0
-2 -8 50 0
2 -50 0
8 -50 0
-3 -8 51 0
3 -51 0
8 -51 0
-48 -45 57 0
48 -57 0
45 -57 0
-49 -9 55 0
49 -55 0
9 -55 0
-50 -45 53 0
50 -53 0
45 -53 0
-51 -9 52 0
51 -52 0
9 -52 0
52 53 -54 0
-52 54 0
-53 54 0
54 55 -56 0
-54 56 0
-55 56 0
57 56 -61 0
-57 61 0
-56 61 0
10 58 0
-10 -58 0
11 59 0
-11 -59 0
1 60 0
-1 -60 0
-1 -58 62 0
1 -62 0
58 -62 0
-60 -58 63 0
60 -63 0
58 -63 0
-2 -10 64 0
2 -64 0
10 -64 0
-3 -10 65 0
3 -65 0
10 -65 0
-62 -59 71 0
62 -71 0
59 -71 0
-63 -11 69 0
63 -69 0
11 -69 0
-64 -59 67 0
64 -67 0
59 -67 0
-65 -11 66 0
65 -66 0
11 -66 0
66 67 -68 0
-66 68 0
-67 68 0
68 69 -70 0
-68 70 0
-69 70 0
71 70 -61 0
-71 61 0
-70 61 0
12 72 0
-12 -72 0
13 73 0
-13 -73 0
75 74 0
-75 -74 0
-75 -72 76 0
75 -76 0
72 -76 0
-74 -72 77 0
74 -77 0
72 -77 0
-2 -12 78 0
2 -78 0
12 -78 0
-3 -12 79 0
3 -79 0
12 -79 0
-76 -73 85 0
76 -85 0
73 -85 0
-77 -13 83 0
77 -83 0
13 -83 0
-78 -73 81 0
78 -81 0
73 -81 0
-79 -13 80 0
79 -80 0
13 -80 0
80 81 -82 0
-80 82 0
-81 82 0
82 83 -84 0
-82 84 0
-83 84 0
85 84 -14 0
-85 14 0
-84 14 0
-61 -61 -61 -61 -75 0
61 75 0
61 75 0
61 75 0
61 75 0
c The second circuit:
89 101 0
-89 -101 0
90 102 0
-90 -102 0
86 145 0
-86 -145 0
-86 -101 105 0
86 -105 0
101 -105 0
-145 -101 106 0
145 -106 0
101 -106 0
-87 -89 107 0
87 -107 0
89 -107 0
-88 -89 108 0
88 -108 0
89 -108 0
-105 -102 114 0
105 -114 0
102 -114 0
-106 -90 112 0
106 -112 0
90 -112 0
-107 -102 110 0
107 -110 0
102 -110 0
-108 -90 109 0
108 -109 0
90 -109 0
109 110 -111 0
-109 111 0
-110 111 0
111 112 -113 0
-111 113 0
-112 113 0
114 113 -146 0
-114 146 0
-113 146 0
91 115 0
-91 -115 0
92 116 0
-92 -116 0
86 145 0
-86 -145 0
-86 -115 119 0
86 -119 0
115 -119 0
-145 -115 120 0
145 -120 0
115 -120 0
-87 -91 121 0
87 -121 0
91 -121 0
-88 -91 122 0
88 -122 0
91 -122 0
-119 -116 128 0
119 -128 0
116 -128 0
-120 -92 126 0
120 -126 0
92 -126 0
-121 -116 124 0
121 -124 0
116 -124 0
-122 -92 123 0
122 -123 0
92 -123 0
123 124 -125 0
-123 125 0
-124 125 0
125 126 -127 0
-125 127 0
-126 127 0
128 127 -146 0
-128 146 0
-127 146 0
93 129 0
-93 -129 0
94 130 0
-94 -130 0
86 145 0
-86 -145 0
-86 -129 133 0
86 -133 0
129 -133 0
-145 -129 134 0
145 -134 0
129 -134 0
-87 -93 135 0
87 -135 0
93 -135 0
-88 -93 136 0
88 -136 0
93 -136 0
-133 -130 142 0
133 -142 0
130 -142 0
-134 -94 140 0
134 -140 0
94 -140 0
-135 -130 138 0
135 -138 0
130 -138 0
-136 -94 137 0
136 -137 0
94 -137 0
137 138 -139 0
-137 139 0
-138 139 0
139 140 -141 0
-139 141 0
-140 141 0
142 141 -146 0
-142 146 0
-141 146 0
95 143 0
-95 -143 0
96 144 0
-96 -144 0
86 145 0
-86 -145 0
-86 -143 147 0
86 -147 0
143 -147 0
-145 -143 148 0
145 -148 0
143 -148 0
-87 -95 149 0
87 -149 0
95 -149 0
-88 -95 150 0
88 -150 0
95 -150 0
-147 -144 156 0
147 -156 0
144 -156 0
-148 -96 154 0
148 -154 0
96 -154 0
-149 -144 152 0
149 -152 0
144 -152 0
-150 -96 151 0
150 -151 0
96 -151 0
151 152 -153 0
-151 153 0
-152 153 0
153 154 -155 0
-153 155 0
-154 155 0
156 155 -146 0
-156 146 0
-155 146 0
97 157 0
-97 -157 0
98 158 0
-98 -158 0
160 159 0
-160 -159 0
-160 -157 161 0
160 -161 0
157 -161 0
-159 -157 162 0
159 -162 0
157 -162 0
-87 -97 163 0
87 -163 0
97 -163 0
-88 -97 164 0
88 -164 0
97 -164 0
-161 -158 170 0
161 -170 0
158 -170 0
-162 -98 168 0
162 -168 0
98 -168 0
-163 -158 166 0
163 -166 0
158 -166 0
-164 -98 165 0
164 -165 0
98 -165 0
165 166 -167 0
-165 167 0
-166 167 0
167 168 -169 0
-167 169 0
-168 169 0
170 169 -99 0
-170 99 0
-169 99 0
-146 -146 -146 -146 -160 0
146 160 0
146 160 0
146 160 0
146 160 0
2 0
-3 0
c Force PIs of 2 ckts to be the same:
1 -86 0
-1 86 0
2 -87 0
-2 87 0
3 -88 0
-3 88 0
c XOR outputs of 2 ckts:
-14 -99 -171 0
14 99 -171 0
14 -99 171 0
-14 99 171 0
c The last OR gate of the miter:
171 -172 0
-171 172 0
172 0
